NAME: cuum420.tsp
TYPE: TSP
COMMENT: User-generated TSP file
DIMENSION: 420
EDGE_WEIGHT_TYPE: EUC_2D
NODE_COORD_SECTION
1 364.0 24.0
2 179.0 223.0
3 375.0 277.0
4 115.0 412.0
5 108.0 344.0
6 273.0 316.0
7 412.0 139.0
8 387.0 71.0
9 79.0 324.0
10 367.0 122.0
11 246.0 51.0
12 133.0 375.0
13 333.0 4.0
14 369.0 269.0
15 72.0 27.0
16 283.0 182.0
17 139.0 388.0
18 48.0 62.0
19 370.0 420.0
20 93.0 344.0
21 19.0 306.0
22 243.0 130.0
23 395.0 90.0
24 405.0 59.0
25 153.0 74.0
26 194.0 386.0
27 281.0 395.0
28 205.0 265.0
29 181.0 226.0
30 50.0 81.0
31 195.0 9.0
32 236.0 330.0
33 179.0 396.0
34 151.0 325.0
35 37.0 65.0
36 398.0 318.0
37 368.0 405.0
38 22.0 406.0
39 163.0 317.0
40 289.0 370.0
41 166.0 240.0
42 118.0 296.0
43 151.0 54.0
44 401.0 52.0
45 327.0 160.0
46 388.0 115.0
47 44.0 149.0
48 274.0 180.0
49 333.0 112.0
50 381.0 97.0
51 42.0 221.0
52 145.0 328.0
53 383.0 267.0
54 272.0 105.0
55 362.0 187.0
56 382.0 295.0
57 109.0 351.0
58 58.0 122.0
59 401.0 177.0
60 83.0 378.0
61 140.0 345.0
62 43.0 318.0
63 110.0 320.0
64 121.0 351.0
65 167.0 277.0
66 21.0 309.0
67 407.0 298.0
68 412.0 101.0
69 352.0 268.0
70 334.0 374.0
71 78.0 114.0
72 47.0 345.0
73 248.0 276.0
74 375.0 322.0
75 7.0 282.0
76 54.0 24.0
77 324.0 103.0
78 33.0 2.0
79 204.0 414.0
80 165.0 404.0
81 84.0 89.0
82 11.0 228.0
83 178.0 217.0
84 405.0 76.0
85 193.0 222.0
86 204.0 193.0
87 318.0 172.0
88 227.0 114.0
89 113.0 294.0
90 207.0 29.0
91 210.0 267.0
92 213.0 136.0
93 149.0 131.0
94 368.0 42.0
95 377.0 160.0
96 83.0 33.0
97 268.0 200.0
98 281.0 173.0
99 273.0 91.0
100 368.0 304.0
101 188.0 148.0
102 64.0 130.0
103 163.0 155.0
104 20.0 222.0
105 22.0 52.0
106 86.0 319.0
107 215.0 257.0
108 40.0 272.0
109 10.0 235.0
110 136.0 251.0
111 365.0 5.0
112 319.0 52.0
113 160.0 50.0
114 56.0 289.0
115 378.0 162.0
116 235.0 417.0
117 214.0 23.0
118 65.0 333.0
119 217.0 400.0
120 161.0 120.0
121 125.0 226.0
122 278.0 247.0
123 124.0 341.0
124 66.0 237.0
125 306.0 11.0
126 189.0 348.0
127 142.0 220.0
128 178.0 362.0
129 39.0 327.0
130 236.0 382.0
131 391.0 121.0
132 392.0 354.0
133 142.0 278.0
134 87.0 240.0
135 227.0 72.0
136 218.0 167.0
137 51.0 119.0
138 18.0 79.0
139 94.0 67.0
140 125.0 120.0
141 208.0 333.0
142 354.0 230.0
143 199.0 331.0
144 187.0 71.0
145 154.0 323.0
146 327.0 230.0
147 266.0 84.0
148 417.0 170.0
149 75.0 213.0
150 295.0 124.0
151 152.0 40.0
152 200.0 179.0
153 190.0 152.0
154 32.0 202.0
155 65.0 173.0
156 134.0 5.0
157 200.0 199.0
158 46.0 311.0
159 147.0 74.0
160 150.0 413.0
161 295.0 387.0
162 173.0 146.0
163 165.0 308.0
164 418.0 384.0
165 299.0 125.0
166 107.0 315.0
167 406.0 69.0
168 150.0 344.0
169 231.0 385.0
170 267.0 232.0
171 340.0 54.0
172 14.0 344.0
173 121.0 367.0
174 93.0 199.0
175 156.0 276.0
176 69.0 297.0
177 332.0 387.0
178 11.0 152.0
179 22.0 406.0
180 177.0 5.0
181 249.0 248.0
182 279.0 145.0
183 362.0 9.0
184 239.0 276.0
185 18.0 82.0
186 130.0 321.0
187 63.0 261.0
188 135.0 391.0
189 107.0 331.0
190 43.0 322.0
191 129.0 193.0
192 327.0 323.0
193 65.0 214.0
194 98.0 226.0
195 296.0 7.0
196 158.0 190.0
197 271.0 94.0
198 406.0 305.0
199 19.0 287.0
200 175.0 136.0
201 404.0 352.0
202 171.0 271.0
203 349.0 222.0
204 384.0 243.0
205 269.0 100.0
206 245.0 84.0
207 342.0 287.0
208 371.0 97.0
209 48.0 416.0
210 166.0 189.0
211 18.0 300.0
212 285.0 403.0
213 51.0 272.0
214 225.0 54.0
215 414.0 135.0
216 88.0 233.0
217 311.0 351.0
218 224.0 29.0
219 173.0 58.0
220 386.0 93.0
221 182.0 315.0
222 269.0 207.0
223 324.0 333.0
224 183.0 206.0
225 64.0 41.0
226 14.0 183.0
227 2.0 294.0
228 279.0 46.0
229 11.0 45.0
230 400.0 160.0
231 60.0 279.0
232 205.0 156.0
233 394.0 51.0
234 411.0 338.0
235 332.0 236.0
236 404.0 414.0
237 418.0 326.0
238 91.0 302.0
239 100.0 228.0
240 197.0 83.0
241 28.0 385.0
242 420.0 373.0
243 236.0 111.0
244 185.0 265.0
245 100.0 276.0
246 283.0 194.0
247 59.0 151.0
248 129.0 216.0
249 103.0 68.0
250 363.0 174.0
251 118.0 26.0
252 52.0 224.0
253 197.0 395.0
254 155.0 256.0
255 84.0 193.0
256 54.0 128.0
257 230.0 151.0
258 396.0 69.0
259 258.0 229.0
260 54.0 324.0
261 51.0 32.0
262 80.0 31.0
263 164.0 95.0
264 84.0 85.0
265 48.0 22.0
266 409.0 239.0
267 7.0 10.0
268 326.0 263.0
269 253.0 301.0
270 395.0 172.0
271 141.0 285.0
272 310.0 72.0
273 416.0 58.0
274 10.0 200.0
275 95.0 42.0
276 80.0 108.0
277 26.0 201.0
278 136.0 368.0
279 226.0 241.0
280 252.0 412.0
281 388.0 52.0
282 5.0 37.0
283 348.0 394.0
284 158.0 234.0
285 322.0 47.0
286 116.0 212.0
287 149.0 131.0
288 47.0 222.0
289 385.0 315.0
290 87.0 393.0
291 249.0 298.0
292 269.0 153.0
293 101.0 114.0
294 139.0 256.0
295 108.0 106.0
296 292.0 73.0
297 104.0 355.0
298 146.0 218.0
299 251.0 413.0
300 379.0 146.0
301 260.0 325.0
302 390.0 151.0
303 400.0 328.0
304 412.0 396.0
305 312.0 302.0
306 385.0 359.0
307 157.0 339.0
308 91.0 271.0
309 226.0 222.0
310 11.0 304.0
311 144.0 333.0
312 326.0 222.0
313 9.0 108.0
314 95.0 286.0
315 295.0 201.0
316 177.0 214.0
317 333.0 344.0
318 56.0 252.0
319 183.0 230.0
320 48.0 137.0
321 74.0 24.0
322 216.0 142.0
323 268.0 14.0
324 285.0 346.0
325 276.0 308.0
326 44.0 39.0
327 268.0 303.0
328 237.0 125.0
329 379.0 176.0
330 64.0 372.0
331 367.0 7.0
332 31.0 266.0
333 183.0 332.0
334 204.0 331.0
335 193.0 401.0
336 236.0 404.0
337 178.0 79.0
338 412.0 283.0
339 337.0 93.0
340 266.0 114.0
341 346.0 199.0
342 419.0 405.0
343 213.0 135.0
344 181.0 207.0
345 55.0 62.0
346 218.0 136.0
347 350.0 209.0
348 385.0 78.0
349 335.0 270.0
350 404.0 76.0
351 269.0 305.0
352 297.0 414.0
353 54.0 77.0
354 3.0 203.0
355 362.0 243.0
356 326.0 413.0
357 234.0 123.0
358 203.0 382.0
359 359.0 54.0
360 284.0 106.0
361 298.0 311.0
362 351.0 262.0
363 11.0 29.0
364 241.0 248.0
365 26.0 227.0
366 237.0 90.0
367 262.0 330.0
368 34.0 268.0
369 125.0 210.0
370 368.0 106.0
371 91.0 95.0
372 258.0 236.0
373 106.0 198.0
374 370.0 290.0
375 416.0 183.0
376 101.0 108.0
377 419.0 110.0
378 26.0 95.0
379 66.0 261.0
380 213.0 326.0
381 201.0 60.0
382 208.0 391.0
383 289.0 285.0
384 82.0 67.0
385 44.0 91.0
386 182.0 40.0
387 367.0 414.0
388 283.0 328.0
389 310.0 261.0
390 84.0 300.0
391 27.0 44.0
392 364.0 54.0
393 48.0 43.0
394 225.0 13.0
395 305.0 387.0
396 348.0 82.0
397 198.0 263.0
398 414.0 54.0
399 253.0 211.0
400 96.0 226.0
401 105.0 329.0
402 26.0 194.0
403 13.0 376.0
404 51.0 362.0
405 298.0 173.0
406 208.0 71.0
407 336.0 203.0
408 199.0 403.0
409 233.0 148.0
410 395.0 325.0
411 166.0 326.0
412 123.0 411.0
413 197.0 146.0
414 342.0 247.0
415 212.0 107.0
416 61.0 205.0
417 20.0 143.0
418 265.0 67.0
419 349.0 337.0
420 184.0 125.0
EOF





